(set-info :source |printed by MathSAT|)
(declare-fun |!{N}| () Int)
(declare-fun |!{N}.next| () Int)
(declare-fun |!{i}| () Int)
(declare-fun |!{i}.next| () Int)
(declare-fun |!{max}| () Int)
(declare-fun |!{max}.next| () Int)
(declare-fun |!{x}| () Int)
(declare-fun |!{x}.next| () Int)
(declare-fun |!{a.1}| () (Array Int Int))
(declare-fun |!{a.1}.next| () (Array Int Int))
(declare-fun |!pc[0]| () Bool)
(declare-fun |!pc[0].next| () Bool)
(declare-fun |!pc[1]| () Bool)
(declare-fun |!pc[1].next| () Bool)
(declare-fun |!pc[2]| () Bool)
(declare-fun |!pc[2].next| () Bool)
(declare-fun |%{x}#1| () Int)
(declare-fun |%{a.1}#1| () (Array Int Int))
(declare-fun nd<0> () Int)
(declare-fun nd_char<0> () Int)
(declare-fun |%{max}#2| () Int)
(define-fun .def_32 () Bool (! |!pc[2]| :next |!pc[2].next|))
(define-fun .def_37 () Bool (not .def_32))
(define-fun .def_30 () Bool (! |!pc[1]| :next |!pc[1].next|))
(define-fun .def_35 () Bool (not .def_30))
(define-fun .def_28 () Bool (! |!pc[0]| :next |!pc[0].next|))
(define-fun .def_34 () Bool (not .def_28))
(define-fun .def_36 () Bool (and .def_34 .def_35))
(define-fun .def_38 () Bool (! (and .def_36 .def_37) :init true))
(define-fun .def_165 () Bool (and .def_28 .def_35))
(define-fun .def_166 () Bool (and .def_37 .def_165))
(define-fun .def_106 () Bool (not |!pc[0].next|))
(define-fun .def_107 () Bool (and |!pc[1].next| .def_106))
(define-fun .def_61 () Bool (not |!pc[2].next|))
(define-fun .def_108 () Bool (and .def_61 .def_107))
(define-fun .def_169 () Bool (and .def_108 .def_166))
(define-fun .def_161 () Bool (= |!{x}.next| 0))
(define-fun .def_10 () Int (! |!{i}| :next |!{i}.next|))
(define-fun .def_76 () Bool (= .def_10 |!{i}.next|))
(define-fun .def_8 () Int (! |!{N}| :next |!{N}.next|))
(define-fun .def_74 () Bool (= .def_8 |!{N}.next|))
(define-fun .def_85 () Bool (and .def_74 .def_76))
(define-fun .def_12 () Int (! |!{max}| :next |!{max}.next|))
(define-fun .def_78 () Bool (= .def_12 |!{max}.next|))
(define-fun .def_86 () Bool (and .def_78 .def_85))
(define-fun .def_162 () Bool (and .def_86 .def_161))
(define-fun .def_16 () (Array Int Int) (! |!{a.1}| :next |!{a.1}.next|))
(define-fun .def_82 () Bool (= .def_16 |!{a.1}.next|))
(define-fun .def_163 () Bool (and .def_82 .def_162))
(define-fun .def_123 () Bool (<= .def_8 .def_10))
(define-fun .def_164 () Bool (and .def_123 .def_163))
(define-fun .def_170 () Bool (and .def_164 .def_169))
(define-fun .def_59 () Bool (not |!pc[1].next|))
(define-fun .def_60 () Bool (and |!pc[0].next| .def_59))
(define-fun .def_62 () Bool (and .def_60 .def_61))
(define-fun .def_167 () Bool (and .def_62 .def_166))
(define-fun .def_154 () Bool (<= nd_char<0> .def_12))
(define-fun .def_135 () Bool (= .def_12 |%{max}#2|))
(define-fun .def_157 () Bool (and .def_135 .def_154))
(define-fun .def_155 () Bool (not .def_154))
(define-fun .def_153 () Bool (= nd_char<0> |%{max}#2|))
(define-fun .def_156 () Bool (and .def_153 .def_155))
(define-fun .def_158 () Bool (or .def_156 .def_157))
(define-fun .def_127 () (Array Int Int) (store .def_16 .def_10 nd_char<0>))
(define-fun .def_149 () Bool (= |!{a.1}.next| .def_127))
(define-fun .def_146 () Bool (= |!{max}.next| |%{max}#2|))
(define-fun .def_142 () Int (* (- 1) |!{i}.next|))
(define-fun .def_143 () Int (+ .def_10 .def_142))
(define-fun .def_144 () Bool (= .def_143 (- 1)))
(define-fun .def_145 () Bool (and .def_74 .def_144))
(define-fun .def_147 () Bool (and .def_145 .def_146))
(define-fun .def_14 () Int (! |!{x}| :next |!{x}.next|))
(define-fun .def_80 () Bool (= .def_14 |!{x}.next|))
(define-fun .def_148 () Bool (and .def_80 .def_147))
(define-fun .def_150 () Bool (and .def_148 .def_149))
(define-fun .def_159 () Bool (and .def_150 .def_158))
(define-fun .def_124 () Bool (not .def_123))
(define-fun .def_160 () Bool (and .def_124 .def_159))
(define-fun .def_168 () Bool (and .def_160 .def_167))
(define-fun .def_171 () Bool (or .def_168 .def_170))
(define-fun .def_118 () Bool (and .def_28 .def_30))
(define-fun .def_119 () Bool (and .def_37 .def_118))
(define-fun .def_120 () Bool (and .def_108 .def_119))
(define-fun .def_88 () Int (* (- 1) |!{x}.next|))
(define-fun .def_89 () Int (+ .def_14 .def_88))
(define-fun .def_90 () Bool (= .def_89 (- 1)))
(define-fun .def_91 () Bool (and .def_86 .def_90))
(define-fun .def_92 () Bool (and .def_82 .def_91))
(define-fun .def_121 () Bool (and .def_92 .def_120))
(define-fun .def_112 () Bool (and .def_59 .def_106))
(define-fun .def_113 () Bool (and |!pc[2].next| .def_112))
(define-fun .def_100 () Bool (and .def_30 .def_34))
(define-fun .def_101 () Bool (and .def_37 .def_100))
(define-fun .def_114 () Bool (and .def_101 .def_113))
(define-fun .def_65 () Bool (<= .def_8 .def_14))
(define-fun .def_95 () Bool (and .def_65 .def_74))
(define-fun .def_96 () Bool (and .def_76 .def_95))
(define-fun .def_97 () Bool (and .def_78 .def_96))
(define-fun .def_98 () Bool (and .def_80 .def_97))
(define-fun .def_99 () Bool (and .def_82 .def_98))
(define-fun .def_115 () Bool (and .def_99 .def_114))
(define-fun .def_109 () Bool (and .def_101 .def_108))
(define-fun .def_67 () Int (select .def_16 .def_14))
(define-fun .def_68 () Bool (<= .def_67 .def_12))
(define-fun .def_93 () Bool (and .def_68 .def_92))
(define-fun .def_66 () Bool (not .def_65))
(define-fun .def_94 () Bool (and .def_66 .def_93))
(define-fun .def_110 () Bool (and .def_94 .def_109))
(define-fun .def_102 () Bool (and |!pc[0].next| |!pc[1].next|))
(define-fun .def_103 () Bool (and .def_61 .def_102))
(define-fun .def_104 () Bool (and .def_101 .def_103))
(define-fun .def_69 () Bool (not .def_68))
(define-fun .def_75 () Bool (and .def_69 .def_74))
(define-fun .def_77 () Bool (and .def_75 .def_76))
(define-fun .def_79 () Bool (and .def_77 .def_78))
(define-fun .def_81 () Bool (and .def_79 .def_80))
(define-fun .def_83 () Bool (and .def_81 .def_82))
(define-fun .def_84 () Bool (and .def_66 .def_83))
(define-fun .def_105 () Bool (and .def_84 .def_104))
(define-fun .def_111 () Bool (or .def_105 .def_110))
(define-fun .def_116 () Bool (or .def_111 .def_115))
(define-fun .def_63 () Bool (and .def_38 .def_62))
(define-fun .def_56 () Bool (= |!{a.1}.next| |%{a.1}#1|))
(define-fun .def_54 () Bool (= |!{x}.next| |%{x}#1|))
(define-fun .def_52 () Bool (= |!{max}.next| 0))
(define-fun .def_50 () Bool (= |!{i}.next| 0))
(define-fun .def_49 () Bool (= |!{N}.next| nd<0>))
(define-fun .def_51 () Bool (and .def_49 .def_50))
(define-fun .def_53 () Bool (and .def_51 .def_52))
(define-fun .def_55 () Bool (and .def_53 .def_54))
(define-fun .def_57 () Bool (and .def_55 .def_56))
(define-fun .def_47 () Bool (<= nd<0> 0))
(define-fun .def_48 () Bool (not .def_47))
(define-fun .def_58 () Bool (and .def_48 .def_57))
(define-fun .def_64 () Bool (and .def_58 .def_63))
(define-fun .def_117 () Bool (or .def_64 .def_116))
(define-fun .def_122 () Bool (or .def_117 .def_121))
(define-fun .def_172 () Bool (! (or .def_122 .def_171) :trans true))
(define-fun .def_173 () Bool (! (not .def_119) :invar-property 0))
(assert true)
